(set-logic ALL)
(declare-fun i1 () Int)
(declare-fun it1100 () Int)
(declare-fun it15 () Int)
(declare-fun it1101 () Int)
(declare-fun it14 () Int)
(declare-fun it1102 () Int)
(declare-fun it1103 () Int)
(declare-fun it13 () Int)
(declare-fun bt1173 () Bool)
(declare-fun bt1174 () Bool)
(declare-fun bt1175 () Bool)
(declare-fun bt1176 () Bool)
(declare-fun it17 () Int)
(declare-fun it16 () Int)
(declare-fun it18 () Int)
(declare-fun bt25 () Bool)
(declare-fun bt28 () Bool)
(declare-fun bt26 () Bool)
(declare-fun bt27 () Bool)
(declare-fun it1107 () Int)
(declare-fun it1108 () Int)
(declare-fun it1109 () Int)
(declare-fun it1110 () Int)
(declare-fun bt1177 () Bool)
(declare-fun bt1178 () Bool)
(declare-fun bt1179 () Bool)
(declare-fun bt1180 () Bool)
(declare-fun it356 () Int)
(declare-fun it1531 () Int)
(declare-fun it1532 () Int)
(declare-fun it1533 () Int)
(declare-fun it1534 () Int)
(declare-fun bt1629 () Bool)
(declare-fun bt1630 () Bool)
(declare-fun bt1631 () Bool)
(declare-fun bt1632 () Bool)
(declare-fun it1112 () Int)
(declare-fun bt1184 () Bool)
(declare-fun it1111 () Int)
(declare-fun bt1182 () Bool)
(declare-fun bt1181 () Bool)
(declare-fun bt1183 () Bool)
(declare-fun it1113 () Int)
(declare-fun it1539 () Int)
(declare-fun it1540 () Int)
(declare-fun it1541 () Int)
(declare-fun it1542 () Int)
(declare-fun bt1633 () Bool)
(declare-fun bt1634 () Bool)
(declare-fun bt1635 () Bool)
(declare-fun bt1636 () Bool)
(declare-fun bt1639 () Bool)
(declare-fun it1543 () Int)
(declare-fun bt1640 () Bool)
(declare-fun it1545 () Int)
(declare-fun it1544 () Int)
(declare-fun bt1637 () Bool)
(declare-fun bt1638 () Bool)
(declare-fun it1546 () Int)
(declare-fun it1547 () Int)
(declare-fun it1548 () Int)
(declare-fun it1549 () Int)
(declare-fun bt1641 () Bool)
(declare-fun bt1642 () Bool)
(declare-fun bt1643 () Bool)
(declare-fun bt1644 () Bool)
(declare-fun it1552 () Int)
(declare-fun it1550 () Int)
(declare-fun bt1647 () Bool)
(declare-fun bt1645 () Bool)
(declare-fun bt1646 () Bool)
(declare-fun bt1648 () Bool)
(declare-fun it1551 () Int)
(assert (= (+ i1 (- 1)) 0))
(assert (= (+ it1100 (- 2)) 0))
(assert (= (+ it1101 (* it15 (- 1))) 0))
(assert (= (+ it1102 (* it14 (- 1))) 0))
(assert (= (+ (* it13 (- 1)) it1103) 0))
(assert (or (not bt1173) (and false bt1173)))
(assert (or bt1174 (and false (not bt1174))))
(assert (or (not bt1175) (and false bt1175)))
(assert (or (not bt1176) (and false bt1176)))
(assert (and bt27
     (not bt26)
     (not bt28)
     (not bt25)
     (= (+ it18 (- 1)) 0)
     bt1174
     (= (+ (* it16 (- 1)) it1103) 0)
     (not bt1176)
     (= (+ it1102 (* it17 (- 1))) 0)
     (not bt1173)
     (= (+ it1100 (- 2)) 0)
     (not bt1175)))
(assert (= (+ it1107 (- 2)) 0))
(assert (= (+ (* it18 (- 1)) it1108) 0))
(assert (= (+ it1109 (* it17 (- 1))) 0))
(assert (= (+ (* it16 (- 1)) it1110) 0))
(assert (or (and bt27 bt1177) (and (not bt27) (not bt1177))))
(assert (or (and (not bt28) (not bt1178)) (and bt28 bt1178)))
(assert (or (and (not bt26) (not bt1179)) (and bt26 bt1179)))
(assert (or (and (not bt25) (not bt1180)) (and bt25 bt1180)))
(assert (let ((a!1 (+ (+ 0 it1110)
              (* (+ 0 it1108) (exp 3 (+ it356 (- 1))) (+ 0 (- 1))))))
  (and (> a!1 (+ 0 0))
       (>= (+ it1107 (- 2)) 0)
       (not bt1180)
       (> (+ (* it1108 (- 1)) it1110) 0)
       bt1177
       (>= (+ (* it1107 (- 1)) 2) 0)
       (>= (+ it356 (- 1)) 0)
       (>= (* it1109 (- 1)) 0)
       (not bt1179)
       (not bt1178))))
(assert (= (+ it1531 (* it1107 (- 1))) 0))
(assert (= (+ (+ 0 it1532) (* (+ 0 it1108) (exp 3 it356) (+ 0 (- 1))))
   (+ 0 0)))
(assert (= (+ it1533 (* it1109 (- 1))) 0))
(assert (= (+ it1534 (* it1110 (- 1))) 0))
(assert (or bt1629 (and false (not bt1629))))
(assert (or (and false bt1630) (not bt1630)))
(assert (or (not bt1631) (and false bt1631)))
(assert (or (and false bt1632) (not bt1632)))
(assert (and (= (+ it1534 (* it1113 (- 1))) 0)
     (not bt1183)
     (= (+ it1531 (- 2)) 0)
     bt1181
     bt1182
     bt1629
     (not bt1632)
     (= (+ (* it1111 (- 1)) it1532) 0)
     (not bt1631)
     (not bt1184)
     (> (+ (* it1532 (- 1)) it1534) 0)
     (not bt1630)
     (= (+ it1533 (* it1112 (- 1))) 0)))
(assert (= (+ it1539 (- 2)) 0))
(assert (= (+ (* it1111 (- 1)) it1540) 0))
(assert (= (+ it1541 (* it1112 (- 1))) 0))
(assert (= (+ it1542 (* it1113 (- 1))) 0))
(assert (or (and (not bt1182) (not bt1633)) (and bt1182 bt1633)))
(assert (or (and bt1181 bt1634) (and (not bt1634) (not bt1181))))
(assert (or (and (not bt1635) (not bt1183)) (and bt1183 bt1635)))
(assert (or (and bt1184 bt1636) (and (not bt1636) (not bt1184))))
(assert (and (not bt1636)
     (<= it1541 0)
     (not bt1635)
     bt1638
     (not bt1637)
     (= (+ (* it1544 (- 1)) it1541) 0)
     (= (+ (* it1545 (- 1)) it1542) 0)
     bt1633
     bt1634
     (= (+ it1539 (- 2)) 0)
     (not bt1640)
     (= (+ (* it1543 (- 1)) it1540) 0)
     bt1639))
(assert (= (+ it1546 (- 2)) 0))
(assert (= (+ (* it1543 (- 1)) it1547) 0))
(assert (= (+ (* it1544 (- 1)) it1548) 0))
(assert (= (+ (* it1545 (- 1)) it1549) 0))
(assert (or (and (not bt1638) (not bt1641)) (and bt1641 bt1638)))
(assert (or (and (not bt1637) (not bt1642)) (and bt1642 bt1637)))
(assert (or (and bt1643 bt1639) (and (not bt1643) (not bt1639))))
(assert (or (and (not bt1644) (not bt1640)) (and bt1640 bt1644)))
(assert (or (distinct (+ (* it1551 (- 1)) it1548) 0)
    bt1648
    (not bt1641)
    (distinct (+ it1546 (- 2)) 0)
    (not bt1646)
    (not bt1645)
    (not bt1647)
    (distinct (+ (* it1550 (- 1)) (* it1547 3)) 0)
    (not bt1643)
    (distinct (+ (* it1552 (- 1)) it1549) 0)
    bt1642))
(assert (let ((a!1 (and bt1645
                (not bt1648)
                bt1647
                (= (+ (* it1552 (- 1)) it1549) 0)
                bt1646
                (= (+ (* it1551 (- 1)) it1548) 0)
                (= (+ (* it1550 (- 1)) (* it1547 3)) 0)))
      (a!2 (and bt1648
                (not bt1646)
                (= (+ (* it1550 (- 1)) it1547) 0)
                (not bt1645)
                (= (+ (* it1552 (- 1)) it1549) 0)
                (not bt1647)
                (= (+ (* it1551 (- 1)) it1548) 0)))
      (a!4 (and (and bt1645 bt1648)
                (= (+ (* it1550 (- 1)) it1547) 0)
                (= (+ (* it1552 (- 1)) it1549) 0)
                (not bt1647)
                bt1646
                (= (+ (* it1551 (- 1)) it1548) 0)))
      (a!5 (and (not bt1646)
                (= (+ (* it1550 (- 1)) it1547) 0)
                (not bt1648)
                (not bt1645)))
      (a!7 (and (= (+ (* it1550 (- 1)) it1547) 0) (not bt1648) (not bt1645)))
      (a!9 (and bt1648
                (= (+ (* it1550 (- 1)) it1547) 0)
                (not bt1645)
                (= (+ (* it1552 (- 1)) it1549) 0)
                (not bt1647)
                bt1646
                (= (+ (* it1551 (- 1)) it1548) 0)))
      (a!10 (and bt1645
                 (not bt1646)
                 (= (+ (* it1550 (- 1)) it1547) 0)
                 (not bt1648)
                 bt1647
                 (= (+ (* it1552 (- 1)) it1549) 0)
                 (= (+ (* it1551 (- 1)) it1548) 0)))
      (a!11 (and (and bt1645 bt1648)
                 (not bt1646)
                 (= (+ (* it1550 (- 1)) it1547) 0)
                 (= (+ (* it1552 (- 1)) it1549) 0)
                 (not bt1647)
                 (= (+ (* it1551 (- 1)) it1548) 0)))
      (a!12 (and bt1645
                 (= (+ (* it1550 (- 1)) (* it1547 2)) 0)
                 (not bt1646)
                 (not bt1648)
                 bt1647
                 (= (+ (* it1552 (- 1)) it1549) 0)
                 (= (+ (* it1551 (- 1)) it1548) 0)))
      (a!15 (and bt1645
                 (= (+ (* it1550 (- 1)) it1547) 0)
                 (not bt1648)
                 (= (+ (* it1552 (- 1)) it1549) 0)
                 (not bt1647)
                 bt1646
                 (= (+ (* it1551 (- 1)) it1548) 0)))
      (a!17 (and (not bt1648)
                 (not bt1645)
                 (= (+ it1550 (- 1)) 0)
                 (= (+ (* it1552 (- 1)) it1549) 0)
                 (not bt1647)
                 bt1646
                 (= (+ (* it1551 (- 1)) it1548) 0))))
(let ((a!3 (or (> (+ it1549 (* it1547 (- 1))) 0)
               bt1643
               (not bt1641)
               a!2
               bt1644
               bt1642))
      (a!6 (and a!5
                (= (+ (* it1552 (- 1)) it1549) 0)
                (not bt1647)
                (= (+ (* it1551 (- 1)) it1548) 0)))
      (a!8 (and a!7
                bt1647
                (= (+ (* it1552 (- 1)) it1549) 0)
                bt1646
                (= (+ (* it1551 (- 1)) it1548) 0)))
      (a!13 (and a!5
                 bt1647
                 (= (+ (* it1552 (- 1)) it1549) 0)
                 (= (+ (* it1551 (- 1)) it1548) 0)))
      (a!14 (and a!7
                 (= (+ (* it1552 (- 1)) it1549) 0)
                 (not bt1647)
                 bt1646
                 (= (+ (* it1551 (- 1)) it1548) 0)))
      (a!16 (or (<= (+ it1549 (* it1547 (- 1))) 0)
                bt1643
                (not bt1641)
                a!15
                bt1644
                bt1642)))
  (and (or a!1 (not bt1641) (not bt1643) bt1644 bt1642)
       (= (+ it1546 (- 2)) 0)
       a!3
       (or a!4 bt1641 bt1643 (> it1547 0) (not bt1644) bt1642)
       (or a!6 bt1643 (not bt1641) (not bt1644) bt1642)
       (or a!8 (> it1548 0) bt1643 (not bt1641) bt1644 (not bt1642))
       (or (or bt1641 bt1643) a!9 (not bt1644) (not bt1642))
       (or a!10 (not bt1641) (not bt1643) bt1644 (not bt1642))
       (or (<= it1547 0) bt1641 bt1643 a!11 (not bt1644) bt1642)
       (or a!4 bt1643 (not bt1641) (not bt1644) (not bt1642))
       (or bt1641 (not bt1643) bt1644 bt1642 a!12)
       (or (<= it1548 0) bt1643 (not bt1641) a!13 bt1644 (not bt1642))
       (or bt1641 a!14 (not bt1643) bt1644 (not bt1642))
       a!16
       (or (or bt1641 bt1643) a!17 bt1644 (not bt1642))
       (or bt1641 a!6 bt1643 bt1644 bt1642)))))
(check-sat)
